n_clientes = 5;
n_sitios = 5;
costo_fijo_sitios = [8.0, 9.64, 11.62, 12.03, 11.5];
capacidad_maxima_sitios = [11, 6, 9, 8, 6];
demanda_clientes = [7.72, 11.82, 7.67, 6.64, 14.34];
beneficio_por_unidad = 
[|-8.17,10.85,-9.96,13.21,5.86
|11.49,13.12,-7.61,-6.48,10.93
|-11.57,-10.84,-12.12,14.36,-11.77
|-9.18,13.9,-11.34,11.55,10.22
|-11.39,6.63,-11.8,12.93,-11.57|];
